* ENCODING=ISO-8859-1
NAME          CPLEX
ROWS
 N  obj1    
 G  c1      
 G  c2      
 G  c3      
 G  c4      
 G  c5      
 G  c6      
 G  c7      
 G  c8      
 G  c9      
 G  c10     
 G  c11     
 G  c12     
 G  c13     
 G  c14     
 G  c15     
 G  c16     
 G  c17     
 G  c18     
 G  c19     
 G  c20     
 G  c21     
 G  c22     
 G  c23     
 G  c24     
 G  c25     
 G  c26     
 G  c27     
 G  c28     
 G  c29     
 G  c30     
 G  c31     
 G  c32     
 G  c33     
 G  c34     
 G  c35     
 G  c36     
 G  c37     
 G  c38     
 G  c39     
 G  c40     
 G  c41     
 G  c42     
 G  c43     
 G  c44     
 G  c45     
 G  c46     
 G  c47     
 G  c48     
 G  c49     
 G  c50     
COLUMNS
    MARK0000  'MARKER'                 'INTORG'
    x1        obj1                            1
    x1        c3                            719
    x1        c7                            509
    x1        c10                           126
    x1        c14                           626
    x1        c29                           631
    x1        c35                           691
    x1        c49                           421
    x2        obj1                            1
    x2        c19                           376
    x2        c33                           633
    x2        c38                           586
    x2        c45                           154
    x2        c48                           329
    x2        c49                           293
    x3        obj1                            1
    x3        c1                            807
    x3        c3                            275
    x3        c13                           602
    x3        c25                           372
    x3        c27                           622
    x3        c30                           804
    x3        c42                           111
    x3        c50                           946
    x4        obj1                            1
    x4        c4                            103
    x4        c10                           667
    x4        c43                           943
    x4        c45                           729
    x5        obj1                            1
    x5        c15                           688
    x5        c16                           192
    x5        c25                           386
    x5        c27                           277
    x5        c34                           587
    x6        obj1                            1
    x6        c6                            753
    x6        c14                           413
    x6        c30                           385
    x6        c35                           820
    x6        c38                           347
    x6        c47                           308
    x7        obj1                            1
    x7        c1                            881
    x7        c3                            893
    x7        c26                           831
    x7        c28                           498
    x7        c34                           720
    x7        c38                           134
    x7        c43                           539
    x8        obj1                            1
    x8        c11                           620
    x8        c15                           797
    x8        c18                           956
    x8        c19                           532
    x8        c23                           269
    x8        c49                           879
    x9        obj1                            1
    x9        c1                            531
    x9        c19                           750
    x9        c21                           618
    x9        c25                           353
    x9        c31                           850
    x9        c40                           533
    x10       obj1                            1
    x10       c9                            721
    x10       c10                           525
    x10       c15                           489
    x10       c28                           234
    x10       c37                           396
    x10       c38                           727
    x10       c43                           574
    x11       obj1                            1
    x11       c20                           109
    x11       c24                           880
    x11       c39                           425
    x11       c49                           252
    x12       obj1                            1
    x12       c3                            632
    x12       c14                           433
    x12       c16                           215
    x12       c32                           989
    x12       c46                           550
    x12       c47                           369
    x13       obj1                            1
    x13       c5                            504
    x13       c9                            412
    x13       c24                           698
    x13       c28                           921
    x13       c35                           621
    x13       c44                           309
    x14       obj1                            1
    x14       c14                           200
    x14       c21                           191
    x14       c44                           934
    x14       c50                           496
    x15       obj1                            1
    x15       c7                            374
    x15       c26                           448
    x15       c31                           421
    x15       c36                           655
    x16       obj1                            1
    x16       c1                            717
    x17       obj1                            1
    x17       c3                            428
    x17       c5                            969
    x17       c9                            214
    x17       c18                           639
    x17       c32                           638
    x17       c37                           427
    x18       obj1                            1
    x18       c1                            835
    x18       c14                           789
    x18       c29                           662
    x18       c45                           101
    x18       c48                           669
    x19       obj1                            1
    x19       c12                           777
    x19       c13                           198
    x19       c17                           395
    x19       c45                           319
    x20       obj1                            1
    x20       c7                            691
    x20       c9                            420
    x20       c26                           771
    x20       c40                           587
    x21       obj1                            1
    x21       c14                           732
    x21       c22                           931
    x21       c25                           944
    x21       c33                           360
    x21       c40                           551
    x21       c44                           511
    x21       c45                           169
    x22       obj1                            1
    x22       c17                           601
    x23       obj1                            1
    x23       c9                            750
    x23       c20                           997
    x24       obj1                            1
    x24       c45                           859
    x25       obj1                            1
    x25       c2                            759
    x25       c17                           115
    x25       c21                           909
    x25       c26                           588
    x25       c31                           733
    x25       c33                           462
    x26       obj1                            1
    x26       c2                            124
    x26       c3                            192
    x26       c10                           163
    x26       c13                           423
    x26       c25                           712
    x26       c38                           502
    x27       obj1                            1
    x27       c16                           723
    x27       c20                           981
    x27       c27                           488
    x27       c42                           517
    x27       c44                           549
    x27       c50                           537
    x28       obj1                            1
    x28       c6                            357
    x28       c12                           687
    x28       c19                           713
    x28       c20                           248
    x28       c27                           860
    x28       c29                           260
    x28       c31                           470
    x28       c50                           142
    x29       obj1                            1
    x29       c8                            946
    x29       c15                           956
    x29       c24                           342
    x29       c27                           168
    x29       c28                           108
    x29       c30                           155
    x29       c32                           484
    x29       c39                           445
    x30       obj1                            1
    x30       c11                           749
    x30       c23                           372
    x30       c44                           162
    x31       obj1                            1
    x31       c28                           140
    x31       c34                           213
    x31       c37                           887
    x31       c48                           427
    x32       obj1                            1
    x32       c27                           869
    x32       c28                           412
    x32       c30                           527
    x32       c41                           236
    x33       obj1                            1
    x33       c21                           475
    x33       c34                           364
    x33       c36                           383
    x34       obj1                            1
    x34       c18                           387
    x34       c23                           420
    x34       c37                           544
    x34       c46                           368
    x34       c47                           453
    x35       obj1                            1
    x35       c6                            381
    x35       c24                           853
    x35       c25                           212
    x35       c45                           804
    x36       obj1                            1
    x36       c8                            160
    x36       c9                            102
    x36       c14                           480
    x36       c37                           841
    x37       obj1                            1
    x37       c2                            946
    x37       c6                            108
    x37       c10                           380
    x37       c18                           143
    x37       c19                           347
    x37       c29                           970
    x37       c43                           736
    x37       c48                           882
    x38       obj1                            1
    x38       c11                           882
    x38       c17                           533
    x38       c22                           709
    x38       c26                           607
    x38       c33                           988
    x38       c40                           582
    x39       obj1                            1
    x39       c4                            750
    x39       c5                            980
    x39       c11                           116
    x39       c26                           557
    x39       c39                           935
    x39       c46                           961
    x40       obj1                            1
    x40       c5                            641
    x40       c6                            715
    x40       c38                           737
    x40       c40                           411
    x40       c41                           516
    x40       c46                           108
    x40       c50                           311
    x41       obj1                            1
    x41       c24                           234
    x41       c32                           730
    x41       c48                           495
    x42       obj1                            1
    x42       c10                           228
    x42       c12                           932
    x42       c16                           549
    x42       c27                           248
    x42       c28                           278
    x43       obj1                            1
    x43       c5                            721
    x43       c34                           115
    x43       c40                           856
    x44       obj1                            1
    x44       c4                            300
    x44       c17                           675
    x44       c20                           896
    x44       c39                           507
    x45       obj1                            1
    x45       c6                            121
    x45       c8                            901
    x45       c18                           252
    x45       c22                           794
    x45       c25                           159
    x45       c29                           556
    x45       c31                           715
    x45       c41                           366
    x46       obj1                            1
    x46       c15                           906
    x47       obj1                            1
    x47       c19                           753
    x47       c39                           185
    x47       c42                           841
    x47       c44                           388
    x47       c48                           337
    x48       obj1                            1
    x48       c2                            503
    x48       c6                            670
    x48       c12                           720
    x48       c16                           498
    x48       c21                           485
    x48       c30                           735
    x48       c42                           155
    x48       c43                           773
    x49       obj1                            1
    x49       c19                           595
    x49       c20                           660
    x49       c29                           869
    x49       c36                           497
    x50       obj1                            1
    x50       c18                           450
    x50       c22                           241
    x50       c33                           684
    x50       c34                           358
    x50       c36                           508
    x50       c38                           677
    MARK0001  'MARKER'                 'INTEND'
RHS
    rhs       c1                           1886
    rhs       c2                           1166
    rhs       c3                           1570
    rhs       c4                            577
    rhs       c5                           1908
    rhs       c6                           1553
    rhs       c7                            787
    rhs       c8                           1004
    rhs       c9                           1310
    rhs       c10                          1045
    rhs       c11                          1184
    rhs       c12                          1558
    rhs       c13                           612
    rhs       c14                          1837
    rhs       c15                          1918
    rhs       c16                          1089
    rhs       c17                          1160
    rhs       c18                          1414
    rhs       c19                          2033
    rhs       c20                          1946
    rhs       c21                          1339
    rhs       c22                          1338
    rhs       c23                           531
    rhs       c24                          1504
    rhs       c25                          1569
    rhs       c26                          1901
    rhs       c27                          1766
    rhs       c28                          1296
    rhs       c29                          1974
    rhs       c30                          1303
    rhs       c31                          1595
    rhs       c32                          1421
    rhs       c33                          1564
    rhs       c34                          1179
    rhs       c35                          1066
    rhs       c36                          1022
    rhs       c37                          1548
    rhs       c38                          1855
    rhs       c39                          1249
    rhs       c40                          1760
    rhs       c41                           559
    rhs       c42                           812
    rhs       c43                          1783
    rhs       c44                          1427
    rhs       c45                          1568
    rhs       c46                           994
    rhs       c47                           565
    rhs       c48                          1570
    rhs       c49                           923
    rhs       c50                          1216
BOUNDS
 LI bnd       x1        0
 LI bnd       x2        0
 LI bnd       x3        0
 LI bnd       x4        0
 LI bnd       x5        0
 LI bnd       x6        0
 LI bnd       x7        0
 LI bnd       x8        0
 LI bnd       x9        0
 LI bnd       x10       0
 LI bnd       x11       0
 LI bnd       x12       0
 LI bnd       x13       0
 LI bnd       x14       0
 LI bnd       x15       0
 LI bnd       x16       0
 LI bnd       x17       0
 LI bnd       x18       0
 LI bnd       x19       0
 LI bnd       x20       0
 LI bnd       x21       0
 LI bnd       x22       0
 LI bnd       x23       0
 LI bnd       x24       0
 LI bnd       x25       0
 LI bnd       x26       0
 LI bnd       x27       0
 LI bnd       x28       0
 LI bnd       x29       0
 LI bnd       x30       0
 LI bnd       x31       0
 LI bnd       x32       0
 LI bnd       x33       0
 LI bnd       x34       0
 LI bnd       x35       0
 LI bnd       x36       0
 LI bnd       x37       0
 LI bnd       x38       0
 LI bnd       x39       0
 LI bnd       x40       0
 LI bnd       x41       0
 LI bnd       x42       0
 LI bnd       x43       0
 LI bnd       x44       0
 LI bnd       x45       0
 LI bnd       x46       0
 LI bnd       x47       0
 LI bnd       x48       0
 LI bnd       x49       0
 LI bnd       x50       0
ENDATA
